(set-logic QF_UF)
(declare-fun car () Bool)
(declare-fun circuit () Bool)
(declare-fun clk () Bool)
(declare-fun prt () Bool)
(assert (not (= (not (not prt)) prt)))
(assert (or (not (= (= (not (not prt)) prt) true)) (= (not (not prt)) prt)))
(assert (= (= (not (not prt)) prt) true))
(check-sat)
(exit)
